r = [
0,70,86,59,121,50,264,282,232,158,150,309,122,155,288,87,76,4,29,58,303,11,264,244,227,82,0
];
p = [
0,14,20,11,12,3,22,27,17,5,8,11,7,22,23,3,25,29,16,27,17,19,18,14,2,15,0
];
e = [
0,2,13,9,7,11,2,4,15,3,15,7,1,2,1,13,19,5,15,7,12,17,18,12,12,4,0
];
d = [
0,112,109,103,159,100,304,335,260,191,182,359,148,185,326,113,116,33,73,85,324,44,290,279,252,107,360
];
d_bar = [
0,113,111,104,160,101,306,338,262,192,183,360,149,187,328,114,119,36,75,88,326,46,292,280,253,109,360
];
w = [
0,2,6.5,9,7,11,1,1.333333333,7.5,3,15,7,1,1,0.5,13,6.333333333,1.666666667,7.5,2.333333333,6,8.5,9,12,12,2,0
];
